196 42 47 94 166 98 18 8 199 133 41 187 174 4 146 123 6 144 90 44 111 52 176 168 
28 167 107 74 40 45 143 177 169 193 97 31 37 124 151 125 79 159 83 25 148 122 
67 39 184 61 2 138 116 113 10 195 155 20 71 186 192 81 112 120 88 46 34 157 129 99 26 
132 110 172 38 102 182 78 3 189 27 89 69 92 200 121 147 197 7 170 58 66 72 134 191 
188 178 49 59 152 70 65 35 57 131 12 32 50 96 185 149 30 126 163 17 135 76 51 23 180 53 
43 115 119 164 93 162 173 77 60 13 73 84 62 103 141 100 161 158 101 91 109 106 145 9 11 153 
136 171 63 198 86 64 140 33 128 48 16 56 5 194 190 80 55 75 154 21 14 36 105 68 
104 142 29 118 15 108 22 175 179 127 19 139 87 117 82 1 165 95 114 
137 183 150 24 181 160 130 85 
54 156 

